32 
300 
4.6 7.1 0 0
5 5.6 0 -18
5.7 11.4 20 -22
4.4 12.3 20 -18
2.8 14.3 -30 -72
3.2 10.3 15 -15
3.5 9.8 -15 -135
4.4 8.4 -10 -97
7.8 11 20 -25
8.8 9.8 20 -23
7.7 8.2 20 -24
6.3 7.9 -15 -116
5.4 8.2 10 -18
5.8 6.8 -10 -64
6.7 5.8 25 -16
13.8 13.1 40 -16
14.1 14.2 40 -27
11.2 13.6 30 -25
9.7 16.4 30 -12
9.5 18.8 -50 -62
4.7 16.8 -30 -101
